*SENSE:Minimize
NAME          MODEL
ROWS
 N  OBJ
 E  C0000000
 E  C0000001
 E  C0000002
 L  C0000003
 L  C0000004
COLUMNS
    X0000000  OBJ        1.00000e+00
    MARK      'MARKER'                 'INTORG'
    X0000001  C0000000   1.00000e+00
    MARK      'MARKER'                 'INTEND'
    MARK      'MARKER'                 'INTORG'
    X0000002  C0000000   1.00000e+00
    X0000002  C0000003   4.00000e+00
    MARK      'MARKER'                 'INTEND'
    MARK      'MARKER'                 'INTORG'
    X0000003  C0000000   1.00000e+00
    X0000003  C0000004   5.00000e+00
    MARK      'MARKER'                 'INTEND'
    MARK      'MARKER'                 'INTORG'
    X0000004  C0000001   1.00000e+00
    MARK      'MARKER'                 'INTEND'
    MARK      'MARKER'                 'INTORG'
    X0000005  C0000001   1.00000e+00
    X0000005  C0000003   7.00000e+00
    MARK      'MARKER'                 'INTEND'
    MARK      'MARKER'                 'INTORG'
    X0000006  C0000001   1.00000e+00
    X0000006  C0000004   6.00000e+00
    MARK      'MARKER'                 'INTEND'
    MARK      'MARKER'                 'INTORG'
    X0000007  C0000002   1.00000e+00
    MARK      'MARKER'                 'INTEND'
    MARK      'MARKER'                 'INTORG'
    X0000008  C0000002   1.00000e+00
    X0000008  C0000003   2.00000e+00
    MARK      'MARKER'                 'INTEND'
    MARK      'MARKER'                 'INTORG'
    X0000009  C0000002   1.00000e+00
    X0000009  C0000004   3.00000e+00
    MARK      'MARKER'                 'INTEND'
RHS
    RHS       C0000000   1.00000e+02
    RHS       C0000001   1.00000e+02
    RHS       C0000002   1.00000e+02
    RHS       C0000003   4.00000e+01
    RHS       C0000004   4.00000e+01
BOUNDS
 FX BND       X0000000   0.00000e+00
 LO BND       X0000001   0.00000e+00
 LO BND       X0000002   0.00000e+00
 LO BND       X0000003   0.00000e+00
 LO BND       X0000004   0.00000e+00
 LO BND       X0000005   0.00000e+00
 LO BND       X0000006   0.00000e+00
 LO BND       X0000007   0.00000e+00
 LO BND       X0000008   0.00000e+00
 LO BND       X0000009   0.00000e+00
ENDATA
